VertexID	Color
3	1
26	1
41	1
20	1
50	1
80	1
12	1
11	1
29	1
56	1
34	1
33	1
86	1
36	1
46	1
48	1
65	1
2	1
39	1
14	1
10	1
54	1
55	1
72	1
18	1
6	1
23	1
7	1
60	1
8	2
21	2
22	2
42	2
52	2
51	2
4	2
45	2
30	2
57	2
32	2
37	2
35	2
63	2
49	2
75	2
66	2
1	2
38	2
69	2
15	2
53	2
73	2
84	2
19	2
5	2
24	2
77	2
59	2
27	3
43	3
81	3
13	3
44	3
31	3
58	3
87	3
62	3
47	3
74	3
67	3
40	3
70	3
9	3
71	3
83	3
16	3
17	3
25	3
78	3
61	3
28	4
82	4
88	4
64	4
76	4
68	4
85	4
79	4
